CMD:
./solvers/bin/cadical --plain --no-reduce -t 1600 ./data/cnfs//oc8051gm98addr/oc8051gm98addr.31.cnf

c --- [ banner ] -------------------------------------------------------------
c 
c CaDiCaL SAT Solver
c Copyright (c) 2016-2024
c A. Biere, M. Fleury, N. Froleyks, K. Fazekas, F. Pollitt, T. Faller
c JKU Linz, University of Freiburg, TU Wien
c 
c Version 2.1.3 5296d3d2a9bf48c154ab2acb5e44625776d821bf
c g++ (Gentoo 12.3.1_p20230526 p2) 12.3.1 20230526 -Wall -Wextra -O3 -DNDEBUG
c Sat Aug 9 07:26:21 PDT 2025 Linux cedar2.int.cedar.computecanada.ca 5.14.0-362.24.2.el9_3.x86_64 x86_64
c 
c --- [ limit ] --------------------------------------------------------------
c 
c setting time limit to 1600 seconds real time (due to '-t 1600')
c 
c --- [ parsing input ] ------------------------------------------------------
c 
c reading DIMACS file from './data/cnfs//oc8051gm98addr/oc8051gm98addr.31.cnf'
c opening file to read './data/cnfs//oc8051gm98addr/oc8051gm98addr.31.cnf'
c found 'p cnf 358355 1042437' header
c parsed 1042437 clauses in 0.17 seconds process time
c 
c --- [ options ] ------------------------------------------------------------
c 
c   --compact=false                (different from default 'true')
c   --decompose=false              (different from default 'true')
c   --deduplicate=false            (different from default 'true')
c   --elim=false                   (different from default 'true')
c   --probe=false                  (different from default 'true')
c   --reduce=false                 (different from default 'true')
c   --subsume=false                (different from default 'true')
c   --ternary=false                (different from default 'true')
c   --transred=false               (different from default 'true')
c   --vivify=false                 (different from default 'true')
c 
c --- [ solving ] ------------------------------------------------------------
c 
c time measured in process time since initialization
c 
c  seconds   reductions  redundant  irredundant
c          MB    restarts       trail       variables
c           level   conflicts       glue          remaining
c 
c *  0.17 146  0 0   0    0    0  0% 0 834413 233353 65%
c {  0.22 149  0 0   0    0    0  0% 0 834413 233353 65%
c i  0.22 149  1 0   0    1    0 36% 0 834413 231986 65%
c i  0.22 149  1 0   0    2    0 36% 0 834413 231869 65%
c i  0.22 149 42 0   0    5    0 36% 0 834413 231224 65%
c i  0.23 149 287 0   2   26   16 42% 2 834413 231210 65%
c i  0.25 150 154 0   5   65   48 42% 4 834413 231174 65%
c }  0.61 151 55 0  68 1004  896 46% 5 834413 231174 65%
c [  0.61 151  0 0  68 1004  896  0% 0 834413 231174 65%
c O  0.62 151 347 0  68 1005  897 82% 15 834413 231174 65%
c i  0.66 151 341 0  68 1096  984 79% 17 834413 231141 65%
c ]  1.32 152 207 0  69 3007 2802 62% 18 834413 231141 65%
c {  1.32 152 55 0  69 3007 2802 46% 5 834413 231141 65%
c F  1.32 152 55 0  69 3008 2803 46% 5 834413 231141 65%
c i  1.64 152 50 0 131 3830 3565 47% 5 834413 231135 64%
c i  1.71 152 47 0 160 4091 3800 46% 5 834413 231110 64%
c i  2.02 153 42 0 286 4856 4473 45% 5 834413 230925 64%
c i  2.08 153 38 0 295 5218 4714 44% 5 834413 230892 64%
c #  2.38 153 39 0 385 6009 5443 44% 5 834413 230892 64%
c i  2.43 153 39 0 387 6156 5572 44% 5 834413 230891 64%
c 
c  seconds   reductions  redundant  irredundant
c          MB    restarts       trail       variables
c           level   conflicts       glue          remaining
c 
c i  2.49 153 39 0 391 6258 5664 44% 5 834413 230887 64%
c i  2.50 153 39 0 392 6261 5666 44% 5 834413 230885 64%
c i  2.50 153 39 0 392 6262 5666 44% 5 834413 230883 64%
c i  2.50 153 39 0 392 6264 5667 44% 5 834413 230879 64%
c i  2.50 153 39 0 392 6265 5667 44% 5 834413 230874 64%
c i  2.50 153 39 0 392 6267 5667 44% 5 834413 230866 64%
c i  2.50 153 39 0 392 6268 5667 44% 5 834413 230864 64%
c i  2.52 153 40 0 392 6454 5832 44% 5 834413 230863 64%
c i  2.52 153 40 0 392 6455 5832 44% 5 834413 230862 64%
c i  2.52 153 40 0 392 6456 5832 44% 5 834413 230861 64%
c }  2.88 153 40 0 445 7007 6319 45% 5 834413 230861 64%
c [  2.88 153 207 0 445 7007 6319 62% 18 834413 230861 64%
c I  3.62 154 104 0 447 10010 9040 50% 13 834413 230861 64%
c ]  5.01 155 62 0 450 15008 13409 46% 12 834413 230861 64%
c {  5.01 155 40 0 450 15008 13409 45% 5 834413 230861 64%
c B  5.02 155 40 0 450 15011 13412 45% 5 834413 230861 64%
c i  5.29 155 39 0 528 15364 13744 44% 5 834413 230843 64%
c i  5.36 155 39 0 558 15544 13909 44% 5 834413 230826 64%
c i  5.41 155 38 0 577 15624 13981 44% 5 834413 230810 64%
c i  5.92 155 36 0 781 16568 14808 44% 5 834413 230793 64%
c 
c  seconds   reductions     redundant  irredundant
c          MB    restarts          trail       variables
c           level     conflicts        glue          remaining
c 
c W  8.40 155 31 0 1486 21012 18521 44% 6 639335 230793 64%
c F 11.61 155 26 0 2342 28013 24247 43% 7 639335 230793 64%
c i 11.70 155 25 0 2342 28399 24561 43% 6 639335 230776 64%
c i 12.24 155 24 0 2420 29923 25595 43% 6 639335 230547 64%
c } 12.75 155 23 0 2533 31008 26547 43% 6 639335 230547 64%
c [ 12.75 155 62 0 2533 31008 26547 46% 12 639335 230547 64%
c i 14.90 155 46 0 2535 35489 29794 44% 10 639335 230516 64%
c B 15.21 155 45 0 2536 36014 30251 44% 10 639335 230516 64%
c i 16.18 155 40 0 2537 38087 31443 44% 10 639335 229065 64%
c i 16.27 155 40 0 2537 38343 31604 44% 10 639335 228358 64%
c i 16.32 155 39 0 2537 38515 31691 44% 10 639335 228021 64%
c i 16.32 155 39 0 2537 38529 31693 44% 10 639335 227812 64%
c ] 16.32 155 39 0 2537 38531 31693 44% 10 639335 226917 63%
c 0 16.32 155 39 0 2537 38531 31693 44% 10 639335 226917 63%
c 
c --- [ result ] -------------------------------------------------------------
c 
s UNSATISFIABLE
c 
c --- [ run-time profiling ] -------------------------------------------------
c 
c process time taken by individual solving procedures
c (percentage relative to process time for solving)
c 
c        16.15  100.00% search
c         9.37   58.04% unstable
c         6.42   39.73% stable
c         0.31    1.93% walk
c         0.17    1.05% parse
c         0.05    0.29% lucky
c         0.00    0.00% simplify
c   =================================
c        16.15   98.95% solve
c 
c last line shows process time for solving
c (percentage relative to total process time)
c 
c --- [ statistics ] ---------------------------------------------------------
c 
c chronological:             10857        28.18 %  of conflicts
c conflicts:                 38531      2385.69    per second
c decisions:                115273      7137.26    per second
c fixed:                    131392        36.67 %  of all variables
c learned:                   37439        97.17 %  per conflict
c learned_lits:            1200596       100.00 %  learned literals
c minimized:                     0         0.00 %  learned literals
c shrunken:                 331212        27.59 %  learned literals
c minishrunken:             206227        17.18 %  learned literals
c otfs:                        179         0.46 %  of conflict
c propagations:          215456689        13.34 M  per second
c rephased:                      8      4816.38    interval
c restarts:                   2537        15.19    interval
c stabilizing:                   3        45.48 %  of conflicts
c subsumed:                   5425         0.62 %  of all clauses
c strengthened:                173         0.02 %  of all clauses
c walked:                        1     38531.00    interval
c 
c seconds are measured in process time for solving
c 
c --- [ resources ] ----------------------------------------------------------
c 
c total process time since initialization:        16.32    seconds
c total real time since initialization:           16.45    seconds
c maximum resident set size of process:          159.35    MB
c 
c --- [ shutting down ] ------------------------------------------------------
c 
c exit 20
